c Reduced graph for GEOM100_2 generated by Cyril Grelier
p edge 97 530
e 1 2
e 1 3
e 1 4
e 1 11
e 1 12
e 1 13
e 1 18
e 1 21
e 1 22
e 1 23
e 1 26
e 1 32
e 1 36
e 1 38
e 1 41
e 1 45
e 1 47
e 1 62
e 2 3
e 2 4
e 2 11
e 2 12
e 2 13
e 2 18
e 2 21
e 2 22
e 2 23
e 2 26
e 2 30
e 2 36
e 2 38
e 2 41
e 2 45
e 2 47
e 3 4
e 3 5
e 3 11
e 3 12
e 3 13
e 3 15
e 3 21
e 3 23
e 3 25
e 3 30
e 3 42
e 3 52
e 3 64
e 3 68
e 3 89
e 4 5
e 4 11
e 4 12
e 4 13
e 4 14
e 4 15
e 4 21
e 4 23
e 4 25
e 4 50
e 4 52
e 4 74
e 4 79
e 5 7
e 5 10
e 5 14
e 5 15
e 5 16
e 5 23
e 5 25
e 5 40
e 5 50
e 5 52
e 5 71
e 5 74
e 5 79
e 6 7
e 6 8
e 6 9
e 6 10
e 6 16
e 6 17
e 6 19
e 6 20
e 6 24
e 6 28
e 6 29
e 6 35
e 6 40
e 6 46
e 6 50
e 7 8
e 7 10
e 7 14
e 7 15
e 7 16
e 7 19
e 7 24
e 7 25
e 7 40
e 7 50
e 7 52
e 7 71
e 7 74
e 8 9
e 8 10
e 8 16
e 8 17
e 8 19
e 8 20
e 8 24
e 8 28
e 8 29
e 8 35
e 8 40
e 8 46
e 8 96
e 9 10
e 9 16
e 9 17
e 9 19
e 9 24
e 9 28
e 9 29
e 9 35
e 9 43
e 9 53
e 9 65
e 9 67
e 9 96
e 10 14
e 10 15
e 10 16
e 10 19
e 10 24
e 10 25
e 10 40
e 10 46
e 10 50
e 10 74
e 11 12
e 11 13
e 11 18
e 11 21
e 11 22
e 11 23
e 11 30
e 11 41
e 11 42
e 11 64
e 11 75
e 12 13
e 12 21
e 12 22
e 12 23
e 12 30
e 12 42
e 12 64
e 12 68
e 12 75
e 13 18
e 13 21
e 13 22
e 13 23
e 13 30
e 13 42
e 13 64
e 13 75
e 14 15
e 14 16
e 14 19
e 14 24
e 14 25
e 14 40
e 14 50
e 14 52
e 14 71
e 14 74
e 15 16
e 15 23
e 15 25
e 15 50
e 15 52
e 15 68
e 15 71
e 15 89
e 16 24
e 16 25
e 16 43
e 16 52
e 16 71
e 16 96
e 17 24
e 17 28
e 17 29
e 17 43
e 17 53
e 17 65
e 17 67
e 17 85
e 17 87
e 17 91
e 17 96
e 18 22
e 18 23
e 18 26
e 18 32
e 18 36
e 18 38
e 18 41
e 18 45
e 18 47
e 18 54
e 19 20
e 19 24
e 19 29
e 19 35
e 19 40
e 19 46
e 19 50
e 19 74
e 20 28
e 20 29
e 20 35
e 20 39
e 20 46
e 20 53
e 20 58
e 20 60
e 20 88
e 20 91
e 20 92
e 21 22
e 21 23
e 21 30
e 21 42
e 21 64
e 21 75
e 22 30
e 22 36
e 22 41
e 22 47
e 22 64
e 22 75
e 23 30
e 23 42
e 24 25
e 24 40
e 24 43
e 24 96
e 25 52
e 25 68
e 25 71
e 25 89
e 26 32
e 26 36
e 26 38
e 26 41
e 26 45
e 26 47
e 26 54
e 26 62
e 26 69
e 26 79
e 27 51
e 27 56
e 27 57
e 27 59
e 27 66
e 27 70
e 27 72
e 27 73
e 27 77
e 27 78
e 27 82
e 27 90
e 27 95
e 28 29
e 28 35
e 28 39
e 28 46
e 28 53
e 28 60
e 28 88
e 28 91
e 29 35
e 29 39
e 29 46
e 29 53
e 29 60
e 29 91
e 30 42
e 30 64
e 30 68
e 30 75
e 31 33
e 31 34
e 31 37
e 31 44
e 31 48
e 31 49
e 31 55
e 31 61
e 31 63
e 31 81
e 31 86
e 31 97
e 32 36
e 32 38
e 32 41
e 32 45
e 32 47
e 32 54
e 32 62
e 32 69
e 32 79
e 33 34
e 33 37
e 33 48
e 33 49
e 33 57
e 33 58
e 33 61
e 33 63
e 33 72
e 33 78
e 33 82
e 34 37
e 34 39
e 34 44
e 34 48
e 34 49
e 34 55
e 34 58
e 34 60
e 34 61
e 34 63
e 35 39
e 35 46
e 35 53
e 35 58
e 35 60
e 36 38
e 36 41
e 36 45
e 36 47
e 36 54
e 36 62
e 37 44
e 37 48
e 37 49
e 37 55
e 37 61
e 37 63
e 37 81
e 37 86
e 37 97
e 38 41
e 38 45
e 38 47
e 38 54
e 38 62
e 38 69
e 39 46
e 39 48
e 39 58
e 39 60
e 39 61
e 39 88
e 39 92
e 40 46
e 40 50
e 40 74
e 40 79
e 41 45
e 41 47
e 41 54
e 42 64
e 42 68
e 42 75
e 42 89
e 43 65
e 43 67
e 43 85
e 43 87
e 43 93
e 43 94
e 43 96
e 44 48
e 44 49
e 44 55
e 44 61
e 44 63
e 44 81
e 44 86
e 44 97
e 45 47
e 45 54
e 45 62
e 46 58
e 47 54
e 48 49
e 48 55
e 48 58
e 48 61
e 48 63
e 49 55
e 49 61
e 49 63
e 49 78
e 49 82
e 50 74
e 50 79
e 51 56
e 51 59
e 51 66
e 51 70
e 51 73
e 51 76
e 51 77
e 51 80
e 51 83
e 51 84
e 52 68
e 52 71
e 52 89
e 53 60
e 53 65
e 53 67
e 53 88
e 53 91
e 54 62
e 54 69
e 54 76
e 55 63
e 55 81
e 55 86
e 55 92
e 55 97
e 56 57
e 56 59
e 56 70
e 56 72
e 56 73
e 56 77
e 56 78
e 56 82
e 56 90
e 57 58
e 57 72
e 57 77
e 57 78
e 57 82
e 57 90
e 57 95
e 58 61
e 58 72
e 59 66
e 59 70
e 59 73
e 59 77
e 59 80
e 59 83
e 59 84
e 60 88
e 60 91
e 60 92
e 61 63
e 62 69
e 62 79
e 62 95
e 63 81
e 64 75
e 65 67
e 65 85
e 65 87
e 65 93
e 65 94
e 66 70
e 66 73
e 66 76
e 66 80
e 66 83
e 66 84
e 67 85
e 67 87
e 67 93
e 67 94
e 68 71
e 68 89
e 69 76
e 69 80
e 69 90
e 69 95
e 70 73
e 70 80
e 70 83
e 70 84
e 71 89
e 72 78
e 72 82
e 72 90
e 72 95
e 73 77
e 73 83
e 73 84
e 74 79
e 76 80
e 76 83
e 76 84
e 76 90
e 77 78
e 77 82
e 78 82
e 80 83
e 80 84
e 81 86
e 81 92
e 81 97
e 83 84
e 85 87
e 85 93
e 85 94
e 86 92
e 86 97
e 87 93
e 87 94
e 88 91
e 88 92
e 90 95
e 93 94
